Using license file /home/benedond/gurobi.lic
Using gurobi.env file
Set parameter Threads to value 1
Academic license - for non-commercial use only
Changed value of parameter TimeLimit to 300.0
   Prev: inf  Min: 0.0  Max: inf  Default: inf
Gurobi Optimizer version 9.0.1 build v9.0.1rc0 (linux64)
Optimize a model with 7440 rows, 7260 columns and 28978 nonzeros
Model fingerprint: 0xf372520c
Variable types: 60 continuous, 7200 integer (7200 binary)
Coefficient statistics:
  Matrix range     [1e+00, 5e+02]
  Objective range  [4e+01, 5e+02]
  Bounds range     [1e+00, 1e+00]
  RHS range        [1e+00, 3e+03]
Presolve removed 25 rows and 25 columns
Presolve time: 0.27s
Presolved: 7415 rows, 7235 columns, 28878 nonzeros
Variable types: 60 continuous, 7175 integer (7175 binary)

Root relaxation: objective 1.045200e+04, 1633 iterations, 0.13 seconds

    Nodes    |    Current Node    |     Objective Bounds      |     Work
 Expl Unexpl |  Obj  Depth IntInf | Incumbent    BestBd   Gap | It/Node Time

     0     0 10452.0000    0   62          - 10452.0000      -     -    1s
H    0     0                    8956.0000000 10452.0000  16.7%     -    1s
H    0     0                    9183.0000000 10452.0000  13.8%     -    2s
     0     0 10452.0000    0   53 9183.00000 10452.0000  13.8%     -    2s
     0     0 10452.0000    0  113 9183.00000 10452.0000  13.8%     -    8s
     0     0 10452.0000    0   96 9183.00000 10452.0000  13.8%     -   10s
     0     0 10452.0000    0   96 9183.00000 10452.0000  13.8%     -   10s
     0     0 10452.0000    0   78 9183.00000 10452.0000  13.8%     -   11s
     0     0 10452.0000    0   75 9183.00000 10452.0000  13.8%     -   11s
     0     0 10452.0000    0   81 9183.00000 10452.0000  13.8%     -   11s
     0     0 10452.0000    0  117 9183.00000 10452.0000  13.8%     -   11s
     0     0 10452.0000    0   76 9183.00000 10452.0000  13.8%     -   12s
     0     0 10452.0000    0   91 9183.00000 10452.0000  13.8%     -   12s
     0     0 10452.0000    0   86 9183.00000 10452.0000  13.8%     -   12s
     0     0 10452.0000    0   86 9183.00000 10452.0000  13.8%     -   12s
     0     0 10452.0000    0   88 9183.00000 10452.0000  13.8%     -   13s
     0     0 10452.0000    0   82 9183.00000 10452.0000  13.8%     -   13s
     0     0 10452.0000    0   94 9183.00000 10452.0000  13.8%     -   13s
     0     0 10452.0000    0   56 9183.00000 10452.0000  13.8%     -   14s
     0     0 10452.0000    0  123 9183.00000 10452.0000  13.8%     -   16s
     0     0 10452.0000    0  103 9183.00000 10452.0000  13.8%     -   16s
     0     0 10452.0000    0   98 9183.00000 10452.0000  13.8%     -   17s
     0     0 10452.0000    0  122 9183.00000 10452.0000  13.8%     -   17s
     0     0 10452.0000    0  118 9183.00000 10452.0000  13.8%     -   17s
     0     0 10452.0000    0   91 9183.00000 10452.0000  13.8%     -   17s
     0     0 10452.0000    0  102 9183.00000 10452.0000  13.8%     -   17s
     0     0 10452.0000    0   90 9183.00000 10452.0000  13.8%     -   18s
     0     0 10452.0000    0  102 9183.00000 10452.0000  13.8%     -   18s
     0     0 10452.0000    0   91 9183.00000 10452.0000  13.8%     -   18s
     0     0 10452.0000    0  110 9183.00000 10452.0000  13.8%     -   18s
     0     0 10452.0000    0  101 9183.00000 10452.0000  13.8%     -   18s
     0     0 10452.0000    0   87 9183.00000 10452.0000  13.8%     -   19s
     0     0 10452.0000    0   87 9183.00000 10452.0000  13.8%     -   20s
     0     2 10452.0000    0   87 9183.00000 10452.0000  13.8%     -   20s
H    8     7                    9313.0000000 10452.0000  12.2%   357   23s
     8     9 10452.0000    5  390 9313.00000 10452.0000  12.2%   457   26s
H   27    13                    9619.0000000 10452.0000  8.66%   172   28s
    54    23 10452.0000   33  112 9619.00000 10452.0000  8.66%   122   30s
   137    45 10452.0000   84  113 9619.00000 10452.0000  8.66%  68.6   35s
H  397   164                    9659.0000000 10452.0000  8.21%  61.9   39s
   591   194 infeasible   25      9659.00000 10452.0000  8.21%  46.7   40s
   855   379 10277.6098  166   53 9659.00000 10452.0000  8.21%  35.5   45s
   870   389 9853.60976   66   94 9659.00000 10452.0000  8.21%  34.9   50s
H  877   373                    10129.000000 10452.0000  3.19%  34.6   53s
   880   377 10452.0000   13   89 10129.0000 10452.0000  3.19%  63.7   55s
   917   393 10452.0000   32   70 10129.0000 10452.0000  3.19%  70.7   60s
  1014   449 10452.0000   80   79 10129.0000 10452.0000  3.19%  75.1   65s
  1284   539 10375.8000   85   73 10129.0000 10452.0000  3.19%  70.1   70s
H 1421   512                    10146.000000 10452.0000  3.02%  65.6   71s
H 1448   489                    10224.000000 10452.0000  2.23%  66.5   72s
  1700   563 10279.4600   82   82 10224.0000 10452.0000  2.23%  60.9   75s
H 1975   687                    10274.000000 10452.0000  1.73%  58.2   81s
  2211   882 10452.0000  102   66 10274.0000 10452.0000  1.73%  57.2   85s
  2715  1314 infeasible  250      10274.0000 10452.0000  1.73%  51.8   90s
  3380  1708 10333.0000  152   72 10274.0000 10452.0000  1.73%  46.5   95s
  3817  1885 10389.4256  159   59 10274.0000 10452.0000  1.73%  45.1  100s
  4136  2087     cutoff  282      10274.0000 10452.0000  1.73%  43.0  105s
  4904  2629 10452.0000  187   78 10274.0000 10452.0000  1.73%  39.1  110s
  5102  2786 10452.0000  160   53 10274.0000 10452.0000  1.73%  38.7  116s
  5116  2795 10352.6603  243  104 10274.0000 10452.0000  1.73%  38.6  120s
  5131  2803 10452.0000   24   74 10274.0000 10452.0000  1.73%  45.0  125s
  5156  2819 10452.0000   37   84 10274.0000 10452.0000  1.73%  45.8  130s
  5201  2842 10452.0000   59   85 10274.0000 10452.0000  1.73%  46.8  135s
  5302  2833 10361.8196   31  100 10274.0000 10452.0000  1.73%  48.5  140s
  5478  2881 10452.0000  112   71 10274.0000 10452.0000  1.73%  50.3  145s
  5730  2986 10428.1110  203   62 10274.0000 10452.0000  1.73%  50.1  150s
  5907  3049 10386.0000  151   53 10274.0000 10452.0000  1.73%  49.1  155s
  6077  3088 10452.0000  129   74 10274.0000 10452.0000  1.73%  49.0  160s
  6404  3144 10282.0000  156   44 10274.0000 10452.0000  1.73%  47.8  165s
  6705  3192 10422.0754  134   64 10274.0000 10452.0000  1.73%  47.0  170s
  6899  3266 10362.7586  197   68 10274.0000 10452.0000  1.73%  46.7  175s
  7628  3257 10327.7062  176   50 10274.0000 10452.0000  1.73%  44.6  180s
  9032  3785 10328.0432  266   72 10274.0000 10452.0000  1.73%  40.7  185s
  9589  3981 10452.0000  115   93 10274.0000 10452.0000  1.73%  41.6  190s
 10202  4239 10365.8007  114   58 10274.0000 10452.0000  1.73%  41.7  195s
 10680  4461 10452.0000   98   96 10274.0000 10452.0000  1.73%  42.7  200s
 10906  4526 10452.0000   66   91 10274.0000 10452.0000  1.73%  43.7  205s
 11296  4648 10452.0000   53   97 10274.0000 10452.0000  1.73%  44.4  210s
 12347  4805 10311.7376  101   73 10274.0000 10452.0000  1.73%  42.5  215s
 12816  4913 10452.0000   73   79 10274.0000 10452.0000  1.73%  41.6  220s
 13905  5480     cutoff  169      10274.0000 10452.0000  1.73%  40.2  225s
 14935  6162 10452.0000  161   82 10274.0000 10452.0000  1.73%  39.6  230s
 15303  6368 10405.0296  145   71 10274.0000 10452.0000  1.73%  39.6  251s
 15751  6611 10452.0000  124   83 10274.0000 10452.0000  1.73%  40.1  255s
 16379  7030 10443.0801  147  103 10274.0000 10452.0000  1.73%  40.7  260s
 16892  7425 10452.0000   73   92 10274.0000 10452.0000  1.73%  41.3  265s
 17464  7881 10452.0000  175   74 10274.0000 10452.0000  1.73%  41.7  270s
 17703  8053 10408.7752  309   66 10274.0000 10452.0000  1.73%  41.8  276s
 17896  8153 10374.5801  316   68 10274.0000 10452.0000  1.73%  41.8  280s
 18392  8383 10452.0000  195   71 10274.0000 10452.0000  1.73%  41.7  285s
 18924  8664 10449.3231  253   87 10274.0000 10452.0000  1.73%  42.1  290s
 19463  8999 10426.9382  302   81 10274.0000 10452.0000  1.73%  42.2  295s
 20041  9285 10452.0000  277   71 10274.0000 10452.0000  1.73%  42.2  300s

Cutting planes:
  Implied bound: 1
  Projected implied bound: 8
  MIR: 12
  Flow cover: 27
  GUB cover: 1
  Relax-and-lift: 3

Explored 20042 nodes (900563 simplex iterations) in 300.00 seconds
Thread count was 1 (of 4 available processors)

Solution count 9: 10274 10224 10146 ... 8956

Time limit reached
Best objective 1.027400000000e+04, best bound 1.045200000000e+04, gap 1.7325%
